
Gurobi 6.5.2 (linux64) logging started Wed Mar 15 13:06:05 2017


Gurobi 6.5.2 (linux64) logging started Wed Mar 15 13:06:05 2017

Optimize a model with 401 rows, 14130 columns and 32795 nonzeros
Coefficient statistics:
  Matrix range    [1e+00, 2e+00]
  Objective range [1e+00, 1e+02]
  Bounds range    [1e+00, 1e+00]
  RHS range       [1e+00, 1e+00]
Found heuristic solution: objective 3876
Presolve removed 92 rows and 1 columns
Presolve time: 0.10s
Presolved: 309 rows, 14129 columns, 30787 nonzeros
Variable types: 0 continuous, 14129 integer (14129 binary)

Root relaxation: objective 1.219500e+03, 282 iterations, 0.01 seconds

    Nodes    |    Current Node    |     Objective Bounds      |     Work
 Expl Unexpl |  Obj  Depth IntInf | Incumbent    BestBd   Gap | It/Node Time

     0     0 1219.50000    0   26 3876.00000 1219.50000  68.5%     -    0s
     0     0 1230.00000    0   16 3876.00000 1230.00000  68.3%     -    0s
     0     0 1232.75000    0   25 3876.00000 1232.75000  68.2%     -    1s
     0     0 1232.75000    0   23 3876.00000 1232.75000  68.2%     -    1s
     0     0 1233.25000    0   28 3876.00000 1233.25000  68.2%     -    1s
     0     0 1233.85714    0   35 3876.00000 1233.85714  68.2%     -    1s
     0     0 1234.00000    0   31 3876.00000 1234.00000  68.2%     -    1s
     0     0 1234.66667    0   31 3876.00000 1234.66667  68.1%     -    1s
     0     0 1234.66667    0   31 3876.00000 1234.66667  68.1%     -    1s
     0     2 1234.66667    0   28 3876.00000 1234.66667  68.1%     -    1s
  1173  1135 1316.00000  238    4 3876.00000 1235.50000  68.1%   4.5    5s

Cutting planes:
  Cover: 44
  MIR: 3
  Zero half: 10
  Lazy constraints: 122

Explored 2763 nodes (13745 simplex iterations) in 10.00 seconds
Thread count was 8 (of 8 available processors)

Time limit reached
Best objective 3.876000000000e+03, best bound 1.236000000000e+03, gap 68.1115%
